(assert (forall ((pkt_0_6_8_0  Int  )(pkt_1_7_9_0  Int  )(state_group_0_state_0_8_a_0  Int  )(state_group_1_state_0_9_b_0  Int  )(state_group_2_state_0_a_c_0  Int  )) (let ((_n0 30 ))
(let ((_n1 pkt_1_7_9_0 ))
(let ((_n2 (<   _n1   _n0 ) ))
(let ((_n3 state_group_1_state_0_9_b_0 ))
(let ((_n4 (+   _n3   _n1 ) ))
(let ((_n5 (ite  _n2   _n4   _n3  ) ))
(let ((_n6 false ))
(let ((_n7 (- 336) ))
(let ((_n8 pkt_0_6_8_0 ))
(let ((_n9 (+   _n8   _n7 ) ))
(let ((_n10 (<   _n9   (ite  _n6  1 0) ) ))
(let ((_n11 (<   (ite  _n6  1 0)   (ite  _n10  1 0) ) ))
(let ((_n12 (=   _n1   (ite  _n6  1 0) ) ))
(let ((_n13 (not  _n12 ) ))
(let ((_n14 (ite (=  _n1  0)  (ite  _n6  1 0)   _n1  ) ))
(let ((_n15 (ite (=  (ite  _n13  1 0)  1)  _n14   (ite  _n6  1 0)  ) ))
(let ((_n16 (=   (ite  _n6  1 0)   _n15 ) ))
(let ((_n17 (not  _n16 ) ))
(let ((_n18 (ite (=  _n15  0)  (ite  _n6  1 0)   _n15  ) ))
(let ((_n19 (ite (=  (ite  _n17  1 0)  1)  _n18   (ite  _n6  1 0)  ) ))
(let ((_n20 (ite  _n11   _n19   (ite  _n6  1 0)  ) ))
(let ((_n21 (+   _n3   _n20 ) ))
(let ((_n22 (ite (=  (ite  _n11  1 0)  1)  _n21   _n3  ) ))
(let ((_n23 (=   _n22   _n5 ) ))
(let ((_n25 state_group_2_state_0_a_c_0 ))
(let ((_n26 true ))
(let ((_n27 (+   _n25   (ite  _n26  1 0) ) ))
(let ((_n28 (ite  _n2   _n27   _n25  ) ))
(let ((_n29 (+   _n25   (ite  _n11  1 0) ) ))
(let ((_n30 (ite (=  (ite  _n11  1 0)  1)  _n29   _n25  ) ))
(let ((_n31 (=   _n30   _n28 ) ))
(let ((_n33 (-  _n8 )))
(let ((_n34 3 ))
(let ((_n35 (+   _n34   _n33 ) ))
(let ((_n36 (-  _n35 )))
(let ((_n37 (+   _n34   _n36 ) ))
(let ((_n38 (=   _n37   _n8 ) ))
(let ((_n40 (=   _n19   _n1 ) ))
(let ((_n42 state_group_0_state_0_8_a_0 ))
(implies  (and (and (>= state_group_2_state_0_a_c_0 0) (< state_group_2_state_0_a_c_0 1024 ))  (and (and (>= state_group_1_state_0_9_b_0 0) (< state_group_1_state_0_9_b_0 1024 ))  (and (and (>= state_group_0_state_0_8_a_0 0) (< state_group_0_state_0_8_a_0 1024 ))  (and (and (>= pkt_1_7_9_0 0) (< pkt_1_7_9_0 1024 ))  (and (>= pkt_0_6_8_0 0) (< pkt_0_6_8_0 1024 )) ) ) ) )   (and  _n23  _n31  _n38  _n40 )  ))))))))))))))))))))))))))))))))))))))))))
(check-sat)
(get-model)
(exit)